NAME: SN_252.hcp
COMMENT: 
TYPE: HCP
DIMENSION: 252
EDGE_DATA_FORMAT : EDGE_LIST
EDGE_DATA_SECTION
1 3
1 5
1 250
2 3
2 6
2 249
3 1
3 2
3 4
4 3
4 8
4 252
5 1
5 7
5 9
6 2
6 7
6 10
7 5
7 6
7 8
8 4
8 7
8 12
9 5
9 11
9 13
10 6
10 11
10 14
11 9
11 10
11 12
12 8
12 11
12 16
13 9
13 15
13 17
14 10
14 15
14 18
15 13
15 14
15 16
16 12
16 15
16 20
17 13
17 19
17 21
18 14
18 19
18 22
19 17
19 18
19 20
20 16
20 19
20 24
21 17
21 23
21 25
22 18
22 23
22 26
23 21
23 22
23 24
24 20
24 23
24 28
25 21
25 27
25 29
26 22
26 27
26 30
27 25
27 26
27 28
28 24
28 27
28 32
29 25
29 31
29 33
30 26
30 31
30 34
31 29
31 30
31 32
32 28
32 31
32 36
33 29
33 35
33 37
34 30
34 35
34 38
35 33
35 34
35 36
36 32
36 35
36 40
37 33
37 39
37 41
38 34
38 39
38 42
39 37
39 38
39 40
40 36
40 39
40 44
41 37
41 43
41 45
42 38
42 43
42 46
43 41
43 42
43 44
44 40
44 43
44 48
45 41
45 47
45 49
46 42
46 47
46 50
47 45
47 46
47 48
48 44
48 47
48 52
49 45
49 51
49 53
50 46
50 51
50 54
51 49
51 50
51 52
52 48
52 51
52 56
53 49
53 55
53 57
54 50
54 55
54 58
55 53
55 54
55 56
56 52
56 55
56 60
57 53
57 59
57 61
58 54
58 59
58 62
59 57
59 58
59 60
60 56
60 59
60 64
61 57
61 63
61 65
62 58
62 63
62 66
63 61
63 62
63 64
64 60
64 63
64 68
65 61
65 67
65 69
66 62
66 67
66 70
67 65
67 66
67 68
68 64
68 67
68 72
69 65
69 71
69 73
70 66
70 71
70 74
71 69
71 70
71 72
72 68
72 71
72 76
73 69
73 75
73 77
74 70
74 75
74 78
75 73
75 74
75 76
76 72
76 75
76 80
77 73
77 79
77 81
78 74
78 79
78 82
79 77
79 78
79 80
80 76
80 79
80 84
81 77
81 83
81 85
82 78
82 83
82 86
83 81
83 82
83 84
84 80
84 83
84 88
85 81
85 87
85 89
86 82
86 87
86 90
87 85
87 86
87 88
88 84
88 87
88 92
89 85
89 91
89 93
90 86
90 91
90 94
91 89
91 90
91 92
92 88
92 91
92 96
93 89
93 95
93 97
94 90
94 95
94 98
95 93
95 94
95 96
96 92
96 95
96 100
97 93
97 99
97 101
98 94
98 99
98 102
99 97
99 98
99 100
100 96
100 99
100 104
101 97
101 103
101 105
102 98
102 103
102 106
103 101
103 102
103 104
104 100
104 103
104 108
105 101
105 107
105 109
106 102
106 107
106 110
107 105
107 106
107 108
108 104
108 107
108 112
109 105
109 111
109 113
110 106
110 111
110 114
111 109
111 110
111 112
112 108
112 111
112 116
113 109
113 115
113 117
114 110
114 115
114 118
115 113
115 114
115 116
116 112
116 115
116 120
117 113
117 119
117 121
118 114
118 119
118 122
119 117
119 118
119 120
120 116
120 119
120 124
121 117
121 123
121 125
122 118
122 123
122 126
123 121
123 122
123 124
124 120
124 123
124 128
125 121
125 127
125 129
126 122
126 127
126 130
127 125
127 126
127 128
128 124
128 127
128 132
129 125
129 131
129 133
130 126
130 131
130 134
131 129
131 130
131 132
132 128
132 131
132 136
133 129
133 135
133 137
134 130
134 135
134 138
135 133
135 134
135 136
136 132
136 135
136 140
137 133
137 139
137 141
138 134
138 139
138 142
139 137
139 138
139 140
140 136
140 139
140 144
141 137
141 143
141 145
142 138
142 143
142 146
143 141
143 142
143 144
144 140
144 143
144 148
145 141
145 147
145 149
146 142
146 147
146 150
147 145
147 146
147 148
148 144
148 147
148 152
149 145
149 151
149 153
150 146
150 151
150 154
151 149
151 150
151 152
152 148
152 151
152 156
153 149
153 155
153 157
154 150
154 155
154 158
155 153
155 154
155 156
156 152
156 155
156 160
157 153
157 159
157 161
158 154
158 159
158 162
159 157
159 158
159 160
160 156
160 159
160 164
161 157
161 163
161 165
162 158
162 163
162 166
163 161
163 162
163 164
164 160
164 163
164 168
165 161
165 167
165 169
166 162
166 167
166 170
167 165
167 166
167 168
168 164
168 167
168 172
169 165
169 171
169 173
170 166
170 171
170 174
171 169
171 170
171 172
172 168
172 171
172 176
173 169
173 175
173 177
174 170
174 175
174 178
175 173
175 174
175 176
176 172
176 175
176 180
177 173
177 179
177 181
178 174
178 179
178 182
179 177
179 178
179 180
180 176
180 179
180 184
181 177
181 183
181 185
182 178
182 183
182 186
183 181
183 182
183 184
184 180
184 183
184 188
185 181
185 187
185 189
186 182
186 187
186 190
187 185
187 186
187 188
188 184
188 187
188 192
189 185
189 191
189 193
190 186
190 191
190 194
191 189
191 190
191 192
192 188
192 191
192 196
193 189
193 195
193 197
194 190
194 195
194 198
195 193
195 194
195 196
196 192
196 195
196 200
197 193
197 199
197 201
198 194
198 199
198 202
199 197
199 198
199 200
200 196
200 199
200 204
201 197
201 203
201 205
202 198
202 203
202 206
203 201
203 202
203 204
204 200
204 203
204 208
205 201
205 207
205 209
206 202
206 207
206 210
207 205
207 206
207 208
208 204
208 207
208 212
209 205
209 211
209 213
210 206
210 211
210 214
211 209
211 210
211 212
212 208
212 211
212 216
213 209
213 215
213 217
214 210
214 215
214 218
215 213
215 214
215 216
216 212
216 215
216 220
217 213
217 219
217 221
218 214
218 219
218 222
219 217
219 218
219 220
220 216
220 219
220 224
221 217
221 223
221 225
222 218
222 223
222 226
223 221
223 222
223 224
224 220
224 223
224 228
225 221
225 227
225 229
226 222
226 227
226 230
227 225
227 226
227 228
228 224
228 227
228 232
229 225
229 231
229 233
230 226
230 231
230 234
231 229
231 230
231 232
232 228
232 231
232 236
233 229
233 235
233 237
234 230
234 235
234 238
235 233
235 234
235 236
236 232
236 235
236 240
237 233
237 239
237 241
238 234
238 239
238 242
239 237
239 238
239 240
240 236
240 239
240 244
241 237
241 243
241 245
242 238
242 243
242 246
243 241
243 242
243 244
244 240
244 243
244 248
245 241
245 247
245 249
246 242
246 247
246 250
247 245
247 246
247 248
248 244
248 247
248 252
249 2
249 245
249 251
250 1
250 246
250 251
251 249
251 250
251 252
252 4
252 248
252 251
20 249
249 20
-1
EOF